100
30
17
5
32
16
14
18
14
3
14
31
13
1
10
7
19
14
21
17
6
25
32
31
7
18
32
22
5
31
23
7
32
19
32
16
3
20
31
31
26
1
6
21
7
1
4
24
4
21
9
31
21
9
2
1
22
10
11
12
32
32
12
8
32
31
14
32
31
6
14
3
24
26
1
6
11
1
32
32
1
2
24
18
4
6
2
22
12
3
1
16
10
2
20
31
15
19
4
10
11
14